5 5
4 84 1 35 2 19 0 26 3 35
4 76 2 72 0 57 3 49 1 10
1 85 0 29 2 95 3 71 4 98
3 98 2 94 0 68 1 94 4 89
3 78 0 24 4 43 1 95 2 39
-1
0 4 5
0 3 5
0 1 2 4 5
0 2 5
0 2 4 5
-2
191 206
265 275
111 163 286 505
268 484
103 320 386

541 9
11 17 21 7 3
10 18 1 23 9
16 6 12 2 24
15 20 13 8 4
0 5 22 19 14
